
Gurobi 6.5.2 (win64) logging started 07/22/16 21:28:41


Gurobi 6.5.2 (win64) logging started 07/22/16 21:28:41

Optimize a model with 1698 rows, 242 columns and 3898 nonzeros
Coefficient statistics:
  Matrix range    [1e+00, 3e+02]
  Objective range [2e+00, 3e+02]
  Bounds range    [1e+00, 1e+00]
  RHS range       [1e+00, 2e+03]
Presolve removed 1581 rows and 25 columns
Presolve time: 0.00s
Presolved: 117 rows, 217 columns, 1053 nonzeros
Variable types: 0 continuous, 217 integer (217 binary)

Root relaxation: objective 1.579000e+03, 89 iterations, 0.00 seconds

    Nodes    |    Current Node    |     Objective Bounds      |     Work
 Expl Unexpl |  Obj  Depth IntInf | Incumbent    BestBd   Gap | It/Node Time

*    0     0               0    1579.0000000 1579.00000  0.00%     -    0s

Explored 0 nodes (89 simplex iterations) in 0.02 seconds
Thread count was 8 (of 8 available processors)

Optimal solution found (tolerance 1.00e-04)
Best objective 1.579000000000e+03, best bound 1.579000000000e+03, gap 0.0%

Wrote requested result file 'H1\instance14\\Results14SG_Sol5.lp'

